(declare-const X String)
; Host\x3a\dATTENTION\x3A.*User-Agent\x3A
(assert (str.in_re X (re.++ (str.to_re "Host:") (re.range "0" "9") (str.to_re "ATTENTION:") (re.* re.allchar) (str.to_re "User-Agent:\u{a}"))))
(check-sat)

(exit)
